zaligvinder/models/SRE/data192/9671.txt
(((h-0|(c-1.(b-2|e-3).h-4)*).(h-5|(@|(d-6|a-7.c-8)).(@|i-9.d-10)).(((b-11|e-12).c-13.c-14|d-15).(@.((((@|c-16.b-17))*|(@.(((@.((d-18|e-19))*|f-20)|h-21))*)*))*.d-22.j-23.a-24.(d-25|a-26).j-27.j-28.f-29.d-30|((j-31.a-32|(@.((((@.(i-33|f-34))*|c-35.(e-36|b-37).f-38))*|@.(a-39|(j-40.h-41)*)))*))*)|(h-42.i-43|f-44).h-45.(@.(a-46|c-47))*.((f-48|j-49))*.j-50.(a-51|i-52)).((g-53.e-54|a-55)|c-56).c-57.i-58.(i-59|h-60.c-61.j-62).i-63.a-64.b-65.d-66.((d-67.i-68.(c-69.h-70|c-71.h-72))*|g-73.d-74.g-75.g-76)|((d-77|d-78).((@|(@|(b-79|f-80.(a-81|i-82.e-83).h-84))))*.(((c-85.(a-86|(j-87|f-88)).d-89.b-90.j-91.a-92|@.(f-93.(@.(f-94|g-95))*)*.f-96.(g-97|g-98)))*)*.(f-99.c-100.i-101.(a-102|h-103.g-104).(@.((@|(@|@.(b-105|f-106)))|(b-107.f-108.c-109)*)|(c-110.b-111.d-112.g-113|j-114.b-115).(@|c-116.(j-117|c-118)))|c-119).a-120.(j-121.j-122.(((b-123|(h-124.g-125)*))*)*.(@|(@|((@|@.(@|@.(@|@.((j-126|a-127))*)).h-128))*.b-129).e-130.(@|b-131.g-132).i-133.f-134.(@|@.(h-135|b-136)).(@.(@.(a-137|c-138)|e-139).(@|@.(g-140.i-141)*))*))*.d-142.(@|b-143.e-144).(j-145|d-146.j-147).i-148|e-149.a-150.c-151.(j-152.j-153|((@|(c-154.j-155.h-156.(i-157.f-158.(@|(@.(@|((@|h-159.j-160))*))*))*)*.((@.(c-161|a-162))*|j-163.a-164.b-165.a-166)))*).(@|(j-167.c-168)*))).((@|(@|h-169.i-170).(@|(f-171|c-172.h-173)).g-174.a-175.f-176.i-177.d-178.e-179).(c-180.e-181.j-182.h-183.((@.(@|g-184.(@|@.(@|((@|a-185.i-186))*)))|@.(g-187|e-188).i-189.d-190)|@.(d-191|d-192))|(@.(i-193.e-194|b-195)|j-196.(@.(c-197.f-198)*.(b-199.b-200.(@|@.(c-201|j-202)))*)*.a-203.a-204.(((g-205.j-206.g-207.j-208.h-209)*)*|d-210).f-211.b-212.i-213.f-214).a-215.h-216.i-217.a-218.a-219).((j-220|(@|((a-221|f-222))*.c-223)).(((@|(g-224|i-225))|(b-226|j-227)))*|j-228.d-229)|((@.(@|i-230.e-231)|a-232.c-233).(((e-234|d-235.b-236)|f-237).(c-238|f-239)|e-240.(@.(f-241.j-242|c-243).(@|f-244.a-245.c-246).(@.(j-247.c-248)*)*.d-249)*)|b-250.g-251)).((@|e-252.b-253)|@.((@|@.(f-254.f-255|j-256))|a-257).c-258.d-259.(i-260.(@|e-261.c-262.f-263.c-264.f-265.g-266))*).(e-267|i-268).(@.(@.(f-269|i-270))*.b-271.g-272.(@|(h-273.c-274.e-275)*).(g-276.(e-277|e-278).((@|b-279.g-280.e-281))*.h-282)*.g-283)*.(((h-284.d-285.(@|@.(h-286.f-287|d-288)).(@.(@|(@.(@|c-289.g-290))*).(((h-291|(d-292|j-293).(@.(@|(i-294.b-295)*)|h-296)))*)*|(((@.(c-297.e-298|h-299)|f-300).(d-301|c-302))*|d-303.c-304.(@|i-305.b-306))))*|((h-307.g-308)*|((e-309|(h-310.b-311.d-312)*))*))|(@.(@|j-313.h-314.e-315.a-316))*.(@|@.(@|(@|b-317.e-318))).(@.(@|((@|g-319.h-320))*).g-321)*.(@|(j-322|(i-323.b-324.j-325.h-326)*).g-327.(i-328.f-329|a-330))).b-331.(b-332.e-333|d-334).i-335.(c-336.(d-337|j-338.j-339).c-340|c-341).((((d-342.e-343.h-344.h-345.i-346.g-347.a-348.j-349.b-350|@.(@|@.(b-351|(h-352.a-353)*)).h-354.(e-355.j-356.i-357)*.f-358.e-359)|(@.(g-360|e-361).i-362)*.e-363)|(c-364|((((a-365|(d-366.d-367|j-368)).c-369|j-370.j-371.b-372)|((@|((@.(i-373|j-374.b-375))*|@.(@|@.(@|@.(i-376|c-377)))))|f-378.g-379.(a-380.c-381.(@|c-382.b-383)|h-384).(@|e-385.g-386).g-387)))*).((@.(@|d-388.f-389).(@|(((d-390|b-391.h-392))*)*).a-393.e-394.c-395.f-396.((@|(b-397.c-398)*.g-399))*.(g-400.h-401.j-402)*.d-403.e-404.d-405.((@|(a-406|j-407.f-408))|e-409)|@.(@|(b-410|c-411)).e-412).(h-413.j-414.g-415|((i-416.i-417.i-418.i-419.(@|d-420.(j-421.a-422|j-423))|j-424).(@|(d-425|b-426))|c-427))|d-428.(c-429|g-430.g-431).i-432.c-433.b-434.b-435.g-436.f-437).e-438)|((h-439|@.((@|(e-440|c-441)))*)|j-442.(@|d-443.f-444).c-445.(e-446|h-447)).(@|(@|i-448.(((e-449.d-450)*)*)*)).(a-451|e-452.a-453).(@|@.(@|(i-454.c-455|i-456))).b-457).((@|(g-458.e-459.b-460|((@|j-461.e-462).i-463)*))|(((@|(((@|h-464.(@.(@.(b-465|f-466).b-467)*)*.c-468.a-469))*|@.(@|(i-470|j-471.a-472)).(c-473|c-474)))|@.(e-475|f-476))|(@|@.(j-477|(e-478|e-479)))).(@|(@|(c-480|f-481))).(h-482|e-483).d-484.(a-485|j-486).j-487.j-488.i-489.f-490.b-491).((i-492.(d-493|@.(e-494.d-495|e-496)).e-497|e-498.(@|(i-499|f-500)).b-501.a-502.((((@|@.(@|(@.(f-503|b-504))*)))*)*|e-505)))*.(((e-506|e-507).((((@|(j-508|d-509)))*|(@.(f-510|f-511))*))*.(((@|(i-512|@.(@.(@|@.(f-513|h-514)))*.i-515))|((@|(i-516|(@.(@|(@|(@|((g-517|d-518))*))))*)).g-519.e-520)*.c-521.(@|(a-522.j-523)*).c-524)|c-525)|h-526.f-527.f-528.(j-529|i-530).c-531).j-532.g-533.i-534.(((((f-535|f-536).f-537)*)*)*.(i-538|d-539))*.d-540.h-541|(j-542.c-543.j-544.i-545.d-546.g-547.(@|@.(f-548.a-549)*).((f-550|j-551.c-552).(g-553|((a-554|e-555).a-556)*).(((@|(@|e-557.h-558))|h-559)|c-560)|f-561.g-562.(c-563.(@.(@|@.(i-564|(b-565.h-566)*)).a-567|c-568.f-569).a-570.(j-571|g-572))*).(@.((e-573.g-574.(j-575|h-576).c-577.(c-578|j-579)|(@|f-580.f-581).b-582)|((@|(@.(i-583.c-584)*|(d-585|((@|@.(@|(i-586|f-587)))|b-588)))))*))*|(@.((@|f-589.((c-590.b-591)*|@.(i-592|@.(@|((@|(@.(f-593|g-594))*))*))).i-595)|f-596.(f-597|b-598)).(i-599|b-600.(@|@.(@|@.(((@|(i-601|d-602)))*)*))).(c-603|((e-604.j-605.h-606|a-607))*)|j-608.(d-609.((h-610|i-611))*|(h-612|b-613))).(h-614|i-615)))|(b-616|e-617.b-618).(i-619.(i-620|c-621).d-622.f-623.(@.((@|h-624.h-625))*|g-626))*.g-627.(((@|j-628.h-629)|(((@|f-630.j-631)|g-632))*)|j-633).(i-634.f-635.((c-636|f-637)|((j-638|g-639)|@.(c-640.d-641)*.g-642).((d-643|(@|i-644.e-645)))*).(j-646|@.(@|j-647.e-648.a-649)).((d-650.(@.(@.(g-651|h-652)|b-653)|(e-654|d-655)).h-656.(g-657.i-658)*.(i-659.e-660)*.c-661.f-662.b-663.e-664.(@|(@|(@|(j-665.d-666)*))).h-667.(@|(e-668|h-669).f-670).a-671.e-672.(@.(@|(a-673|e-674))|f-675)|g-676)|(@.(f-677|i-678)|((h-679|a-680).d-681)*.g-682.a-683.h-684).(@|@.(c-685|h-686)).(@.(h-687|j-688)|j-689).(j-690.((g-691|(@|h-692.e-693)).(j-694|(@|e-695.e-696))|d-697)|@.(f-698.a-699|f-700)).f-701.(j-702|e-703).g-704.(@.(i-705|j-706).(h-707.e-708.i-709.h-710|((@|(h-711|(@|a-712.c-713).g-714.i-715)))*))*.g-716.e-717.c-718.(@|(b-719|h-720)).a-721.(d-722|d-723).a-724.(c-725|g-726).f-727.(@|(b-728|d-729))).h-730.j-731.g-732.(@|i-733.g-734).(b-735.d-736.j-737|@.(((@|i-738.f-739))*)*)|(@|(c-740|(@|g-741.j-742.d-743.g-744.(e-745.f-746.g-747)*.(d-748|d-749.d-750)))).(c-751|i-752).h-753.d-754.a-755.(@|@.(f-756|j-757)))).((a-758.(@|@.(a-759.j-760)*).(g-761|i-762).((h-763|c-764))*.(b-765.g-766.c-767.f-768|c-769)|(g-770.(((@|(((f-771|i-772))*|(@|@.(@|@.(i-773.i-774)*.j-775.b-776)).d-777)).j-778.f-779.f-780|(j-781|d-782).e-783).e-784|@.(@|@.(f-785|a-786))).a-787.((@|j-788.(@|(b-789|d-790)).(a-791|i-792)))*|((@|@.(i-793.a-794)*.b-795)|((h-796.h-797.(g-798.(@|@.(@|(@|f-799.c-800))).(@|(f-801|a-802)).(@.(@|a-803.h-804)|((@|@.(f-805.d-806)*))*).(b-807|h-808.(@|d-809.h-810)).(j-811.b-812|((h-813|a-814)|c-815).e-816)|(g-817|@.(@|((a-818|e-819))*).((a-820.i-821|j-822.((@|@.(h-823|j-824)).b-825)*))*))|(f-826.j-827.i-828.a-829)*))*.(i-830.d-831|((@.(g-832|f-833))*|a-834)).(e-835|g-836).j-837)).i-838.h-839.j-840)|(((@.(@|@.(i-841|e-842)).h-843|((j-844.(@|(g-845|f-846)))*|e-847).(a-848.g-849)*)|(@.(@.(@|d-850.j-851))*.(c-852|h-853)|(h-854.((b-855|j-856))*.g-857.(c-858.b-859.(f-860.a-861.h-862)*.(e-863.f-864.f-865)*.(h-866.(j-867|a-868))*|h-869).(h-870|h-871).(@|((d-872|h-873))*).j-874.i-875.(i-876|d-877).(d-878|b-879).h-880.(e-881|g-882)|@.(((b-883.(@|a-884.a-885.g-886).e-887.c-888.j-889|@.(c-890.a-891)*.j-892)|(@|b-893.(@|i-894.i-895))))*.(@|((e-896|i-897)|(b-898|h-899)).h-900.f-901.c-902)))).((h-903.a-904.c-905.c-906.j-907.a-908)*|((c-909.i-910)*.e-911|e-912.a-913.e-914.((((@.(((@|(@|@.(e-915|c-916))))*)*)*.i-917)*|e-918).(@|(@.(@|a-919.f-920)|i-921)).(((@|(@.(b-922|a-923))*).h-924)*|(f-925|(@|(h-926|d-927))))|e-928.d-929.((a-930|@.(a-931.i-932)*))*))).(h-933.(@|i-934.h-935).(@|(b-936|((@|j-937.b-938).d-939|j-940.a-941.(@|@.(f-942|c-943)))))|(f-944|(j-945.i-946|g-947).h-948).d-949.(@|g-950.i-951).(a-952.a-953.c-954.(@|@.((g-955|@.(g-956|j-957))|(e-958.a-959)*).((h-960.h-961)*)*)|d-962.j-963)))*)
(((e-0.b-1)*.h-2.(h-3|d-4).c-5.f-6.c-7.(@|(b-8.g-9)*).f-10|(a-11.c-12.(b-13|d-14)|j-15.i-16.e-17)).(j-18|@.(@|a-19.d-20)).a-21.e-22.g-23.(g-24|h-25).a-26|((h-27|h-28).b-29.f-30.(@|(d-31|j-32)).(e-33|h-34).b-35.f-36.j-37.d-38.(c-39.e-40)*.c-41|(f-42|(f-43|i-44.d-45)))).(h-46|((g-47|f-48.g-49.j-50.g-51)|a-52.(@.(b-53.a-54|((@|i-55.d-56.b-57)|@.(@|@.(@|(h-58|d-59))))).(@.((e-60|g-61)|b-62.(f-63|a-64).(h-65.b-66|(g-67.((g-68|c-69))*|a-70.e-71.((@|(@|@.(@|f-72.i-73))))*))).j-74.d-75.c-76)*|((@|@.(b-77|g-78))|i-79.g-80.j-81.i-82)).i-83.(@.(b-84|b-85).(i-86.b-87.g-88)*.i-89.h-90|a-91))).((e-92|b-93.a-94.(f-95.h-96)*.j-97).(@|d-98.b-99).a-100.(j-101|(i-102|i-103.h-104.c-105.i-106.(j-107.i-108)*))|(((b-109|b-110)|h-111))*.e-112.f-113.h-114.(b-115.b-116|(e-117|d-118.f-119))).(((((@.(d-120|b-121))*|e-122).c-123.(e-124|f-125.g-126.c-127).e-128.i-129.(@|(@.(a-130.c-131)*|a-132)).(c-133.(@.(@|(@|e-134.g-135)).a-136.a-137.f-138|@.(@|f-139.c-140).g-141))*)*)*|c-142.(@|@.(j-143|b-144)).a-145.f-146.((((g-147|(d-148|j-149.b-150.j-151.(b-152.e-153)*)))*.(@|(@|d-154.g-155)).(@|(b-156|i-157))|(e-158|h-159.j-160.g-161).(@|(h-162.(@|(c-163|j-164.d-165))|g-166)).a-167.(h-168.b-169.a-170.h-171|(c-172|(c-173.d-174|j-175))).h-176.(@.(a-177.b-178|a-179)|j-180).(g-181|d-182).(a-183.j-184.j-185.j-186|d-187.i-188).f-189.(@|((h-190|f-191).a-192.a-193)*).i-194.(c-195.f-196.e-197|((c-198.e-199.(@.(@|b-200.(d-201|a-202))|c-203))*)*).((@|((i-204|j-205)|@.(d-206|b-207).(c-208|b-209).b-210)).f-211.f-212.(d-213|((@|f-214.g-215))*)|d-216).a-217.d-218.(b-219|(g-220|d-221)).(@.(c-222|h-223))*))*).((@.(c-224.e-225.c-226.e-227)*.h-228.j-229|(((a-230|e-231).c-232|a-233.(g-234|@.(@.(j-235.(d-236.d-237)*)*)*)).(f-238.e-239|j-240.c-241.(@|j-242.c-243)))*).h-244.(((@.(@|c-245.b-246.a-247).(c-248|(((d-249.h-250)*|(@|e-251.d-252).(@|(d-253|d-254))))*).((@|((e-255|(c-256.h-257|@.((g-258|d-259)|a-260)))|c-261)))*|((@|i-262.g-263).((@|@.(e-264|d-265).(b-266.j-267)*)|g-268)|(@.(@|h-269.i-270).j-271|e-272.(@|(i-273|((@.(a-274|a-275))*)*.b-276)))))|(@|(@|@.(a-277|c-278.g-279.c-280).f-281.d-282.g-283.h-284)).(e-285.(@|e-286.g-287).(@|c-288.i-289.c-290))*.(d-291.(@.((c-292.e-293)*)*|g-294))*.e-295)|((f-296.d-297.e-298.d-299.j-300.i-301)*.((b-302.b-303|i-304).(@|@.(d-305.g-306)*.b-307.(h-308|@.(e-309|f-310)))|@.(@.(@|@.((c-311|c-312)|f-313)))*.d-314)|@.((d-315.d-316)*|g-317))))*.((g-318|((h-319.d-320.c-321)*|i-322)).(@|(@|(g-323.a-324)*)).h-325.i-326.c-327.a-328.i-329.(g-330.e-331)*.e-332.g-333.(((@|f-334.h-335).(j-336|g-337))*|j-338).(j-339|d-340).g-341|(d-342.f-343.(j-344|f-345).(@|c-346.b-347).(c-348.g-349)*.a-350)*.((((d-351.(j-352|g-353).c-354.(@.(j-355|c-356).i-357)*|(@.(d-358|g-359.a-360)|i-361.e-362.((@.(a-363.e-364|@.(i-365|j-366)))*|e-367))))*|@.(@|(@.(@|((@|b-368.a-369))*))*).i-370.d-371.a-372.j-373.f-374.(d-375|b-376.h-377).j-378.(@|(@|b-379.f-380)).b-381.i-382.(@.(e-383|e-384).e-385|(e-386|a-387)).i-388.e-389.(@.(@|(@|@.(@|(d-390|g-391)))))*.((@|i-392.a-393)|((h-394.c-395.(@|(@|d-396.f-397)).c-398|h-399)|(a-400.j-401.e-402.(((h-403.c-404.c-405.d-406.(j-407|h-408)|(a-409|h-410).i-411.d-412.a-413))*|a-414))*)).((a-415|f-416.e-417.e-418.j-419.c-420)|i-421)).d-422.(@|b-423.c-424).(@|(i-425|(j-426|i-427))).(@|(@|d-428.i-429)).(d-430|b-431).(a-432|a-433).(e-434.b-435.a-436)*)*.(((c-437|j-438))*|d-439.(g-440|g-441).g-442.b-443).((h-444|((@.(d-445|(@|a-446.i-447).f-448).(c-449|((f-450|(d-451|e-452)))*)|(g-453|(@|(@.(@|h-454.f-455.b-456)|b-457)))))*)|(((@|(d-458|@.(e-459|h-460.i-461)).(b-462|a-463).b-464.h-465.d-466.(j-467.(h-468|h-469).i-470|b-471)).(@|(b-472.c-473)*.b-474)|(@.(j-475.j-476.f-477)*|((@|c-478.b-479)|((i-480|j-481))*.e-482)))|(@.(@|(j-483|f-484).f-485).h-486.c-487.a-488.g-489|@.(((g-490|c-491)|j-492)|e-493).((@|j-494.h-495)|c-496).b-497.(e-498.c-499)*.d-500.c-501.((c-502|g-503)|e-504).(a-505.j-506|(b-507.a-508|(@|((f-509.c-510)*.e-511.h-512)*.(g-513|(@.(g-514.i-515)*|e-516))))).(((((b-517|g-518).((@|(c-519.i-520)*)|f-521).(@.((((e-522|a-523).c-524.(@|i-525.(d-526|d-527)).j-528|f-529.h-530.h-531))*)*)*.a-532.(e-533|i-534).e-535.g-536.b-537.((f-538|a-539)|f-540))*)*|j-541.h-542.(@|f-543.f-544).((i-545|i-546)|g-547).j-548.(@.(@|a-549.(@|(d-550|b-551.d-552)).((f-553.c-554.a-555)*|(@.(b-556|d-557)|c-558)).h-559.g-560).i-561|e-562.(h-563.h-564)*))|(((((@.(@.(@|f-565.(h-566|h-567)))*.e-568)*|(@|(c-569.g-570)*).h-571)|(b-572|a-573))|b-574.((((g-575|a-576)|@.(h-577|(g-578.(@.((@|a-579.j-580))*)*|a-581)).(a-582|a-583)))*.(@|@.(@|(@|i-584.d-585))))*.(j-586.(j-587.f-588)*)*.((i-589.h-590.(@|(@|(@.(e-591|b-592))*)).(@.(g-593|f-594.g-595))*)*.d-596|g-597).j-598.(@|(@.(@|(h-599|d-600)).h-601|j-602).((b-603|f-604)|g-605)).f-606.((f-607.i-608)*)*).(((c-609.a-610.((@|(b-611|h-612))|j-613).c-614.d-615.j-616|((@.(i-617|h-618)|(@|(d-619|h-620)))|@.(b-621|@.(@|b-622.j-623).e-624.e-625.f-626)))|((@.(f-627.a-628)*.j-629)*)*)|b-630.(@|h-631.j-632.h-633)))*).((((@|g-634.b-635))*)*)*))).f-636.i-637.d-638.(c-639|(@.(j-640.(((f-641|d-642))*)*.b-643.(@.((a-644|c-645)|b-646).f-647.c-648.d-649)*)*.g-650.b-651.g-652.(((d-653|e-654.e-655.e-656))*)*)*).(@|(j-657|g-658)).((f-659|d-660).(@|(j-661|j-662)).b-663.j-664.a-665.i-666|i-667).(@|(d-668.e-669.a-670.((a-671|b-672))*|c-673)).(@|(@|(a-674.d-675|d-676))).a-677.((g-678.e-679|((d-680|d-681.a-682.e-683)|a-684)).d-685.a-686.d-687.(b-688.g-689.c-690|f-691.e-692).(d-693|((@|(j-694|h-695)).(d-696|a-697))*.(d-698|e-699))|c-700.g-701.(b-702|d-703.d-704)).f-705.b-706)
